135573
76,58,28,27,10,59,66,44,87,1,43,79,91,60,96,78,3,94,70,101,105,38,104,11,41,67,95,54,71,36,85,48,73,39,37,49,18,7,84,53,63,32,75,15,4,103,35,100,51,82,33,2,72,45,25,62,22,86,46,77,21,17,90,64,16,20,56,40,6,88,13,31,65,52,5,30,29,55,97,8,106,98,69,81,42,19,99,68,50,9,92,23,12,93,89,80,57,83,34,26,14,47,61,74,102,24
